210 60933
55671 19377
15881 31871
56128 28067
48803 3931
11125 21007
8289 7888
9886 60202
62970 23612
29110 63634
53742 60193
34150 47114
44259 53800
22305 40592
32145 32437
52935 33373
35841 7660
38328 52923
35044 42395
27771 51811
52879 42929
1226 64022
43722 23829
61545 12155
33868 45394
18817 8783
46169 4656
61745 22036
50413 35756
36791 23787
4624 31312
42401 53622
62529 17333
